p tw 40 98
0 1
0 26
0 34
0 19
0 16
0 37
1 5
1 23
2 3
2 11
2 31
2 4
2 27
3 6
3 31
3 37
3 24
3 26
4 5
4 17
4 31
4 8
4 20
4 36
5 6
5 19
5 31
5 17
5 22
6 8
6 37
6 17
6 7
7 8
7 18
7 32
8 12
8 26
8 35
8 29
8 39
8 36
9 10
10 29
10 38
10 25
11 15
11 19
11 27
11 18
11 38
12 24
12 18
12 32
12 20
12 37
12 30
13 14
13 19
13 22
14 18
14 24
14 29
14 39
14 38
15 16
15 39
16 17
16 22
16 19
16 25
17 24
17 35
17 32
18 21
18 35
18 26
19 20
19 30
19 37
19 29
19 25
20 25
20 34
20 22
21 31
21 22
22 23
23 27
23 28
23 38
24 29
25 28
25 36
26 34
28 35
31 36
32 33
